data/lp_files/pEFS/37_2.lp
\ Model foo
\ LP format - for model browsing. Use MPS format to capture full model detail.
Minimize
  z
Subject To
 allocateEach[1]: x[1,1] + x[2,1] = 1
 allocateEach[2]: x[1,2] + x[2,2] = 1
 allocateEach[3]: x[1,3] + x[2,3] = 1
 allocateEach[4]: x[1,4] + x[2,4] = 1
 allocateEach[5]: x[1,5] + x[2,5] = 1
 allocateEach[6]: x[1,6] + x[2,6] = 1
 allocateEach[7]: x[1,7] + x[2,7] = 1
 allocateEach[8]: x[1,8] + x[2,8] = 1
 allocateEach[9]: x[1,9] + x[2,9] = 1
 allocateEach[10]: x[1,10] + x[2,10] = 1
 allocateEach[11]: x[1,11] + x[2,11] = 1
 allocateEach[12]: x[1,12] + x[2,12] = 1
 allocateEach[13]: x[1,13] + x[2,13] = 1
 allocateEach[14]: x[1,14] + x[2,14] = 1
 allocateEach[15]: x[1,15] + x[2,15] = 1
 allocateEach[16]: x[1,16] + x[2,16] = 1
 allocateEach[17]: x[1,17] + x[2,17] = 1
 allocateAllCash: cashProportion[1] + cashProportion[2] = 1
 findWorstP[1,2]: z + 0.015965259595121 cashProportion[1]
   - 0.015965259595121 cashProportion[2] + 0.0263746088511399 x[1,1]
   + 0.0205419673457224 x[1,2] + 0.0765800285245972 x[1,3]
   + 0.0109628115886498 x[1,4] + 0.0394874087319326 x[1,5]
   + 0.1061796198139515 x[1,6] + 0.0858292355833706 x[1,7]
   + 8.7276752453328236e-04 x[1,8] + 0.00546011878153139 x[1,9]
   + 0.0241714030270132 x[1,10] + 0.0869468037550291 x[1,11]
   + 0.0755156778849224 x[1,12] + 0.0996232198735551 x[1,13]
   + 0.1005066309044852 x[1,14] + 0.0984950081954999 x[1,15]
   + 0.0834983076824829 x[1,16] + 0.0429891223364625 x[1,17]
   - 0.0263746088511399 x[2,1] - 0.0205419673457224 x[2,2]
   - 0.0765800285245972 x[2,3] - 0.0109628115886498 x[2,4]
   - 0.0394874087319326 x[2,5] - 0.1061796198139515 x[2,6]
   - 0.0858292355833706 x[2,7] - 8.7276752453328236e-04 x[2,8]
   - 0.00546011878153139 x[2,9] - 0.0241714030270132 x[2,10]
   - 0.0869468037550291 x[2,11] - 0.0755156778849224 x[2,12]
   - 0.0996232198735551 x[2,13] - 0.1005066309044852 x[2,14]
   - 0.0984950081954999 x[2,15] - 0.0834983076824829 x[2,16]
   - 0.0429891223364625 x[2,17] >= 0
 findWorstP[2,1]: z - 0.0180827466486643 cashProportion[1]
   + 0.0180827466486643 cashProportion[2] - 0.0520300896904234 x[1,1]
   - 0.0962243224997589 x[1,2] - 0.0628917928440544 x[1,3]
   - 0.0496672774616646 x[1,4] - 0.1038190760921979 x[1,5]
   - 0.0414938759764683 x[1,6] - 0.0459663419809046 x[1,7]
   - 0.0731266274471984 x[1,8] - 0.0771048317099045 x[1,9]
   - 0.0531029993249108 x[1,10] - 0.1126555116211785 x[1,11]
   - 0.0237486739319124 x[1,12] - 0.0511138971935577 x[1,13]
   - 0.0663034043784357 x[1,14] - 0.0248939145529945 x[1,15]
   - 0.0286310155270518 x[1,16] - 0.0191436011187193 x[1,17]
   + 0.0520300896904234 x[2,1] + 0.0962243224997589 x[2,2]
   + 0.0628917928440544 x[2,3] + 0.0496672774616646 x[2,4]
   + 0.1038190760921979 x[2,5] + 0.0414938759764683 x[2,6]
   + 0.0459663419809046 x[2,7] + 0.0731266274471984 x[2,8]
   + 0.0771048317099045 x[2,9] + 0.0531029993249108 x[2,10]
   + 0.1126555116211785 x[2,11] + 0.0237486739319124 x[2,12]
   + 0.0511138971935577 x[2,13] + 0.0663034043784357 x[2,14]
   + 0.0248939145529945 x[2,15] + 0.0286310155270518 x[2,16]
   + 0.0191436011187193 x[2,17] >= 0
Bounds
 z <= 1
 -infinity <= cashProportion[1] <= 1
 -infinity <= cashProportion[2] <= 1
Binaries
 x[1,1] x[1,2] x[1,3] x[1,4] x[1,5] x[1,6] x[1,7] x[1,8] x[1,9] x[1,10]
 x[1,11] x[1,12] x[1,13] x[1,14] x[1,15] x[1,16] x[1,17] x[2,1] x[2,2]
 x[2,3] x[2,4] x[2,5] x[2,6] x[2,7] x[2,8] x[2,9] x[2,10] x[2,11] x[2,12]
 x[2,13] x[2,14] x[2,15] x[2,16] x[2,17]
End
