data/mps_files/q3/37_2.mps
NAME foo
ROWS
 N  OBJ
 E  allocateEach[1]
 E  allocateEach[2]
 E  allocateEach[3]
 E  allocateEach[4]
 E  allocateEach[5]
 E  allocateEach[6]
 E  allocateEach[7]
 E  allocateEach[8]
 E  allocateEach[9]
 E  allocateEach[10]
 E  allocateEach[11]
 E  allocateEach[12]
 E  allocateEach[13]
 E  allocateEach[14]
 E  allocateEach[15]
 E  allocateEach[16]
 E  allocateEach[17]
 E  allocateAllCash
 G  findWorstP[1,2]
 G  findWorstP[2,1]
COLUMNS
    z         OBJ       1
    z         findWorstP[1,2]  1
    z         findWorstP[2,1]  1
    cashProportion[1]  allocateAllCash  1
    cashProportion[1]  findWorstP[1,2]  1.5965259595121017e-02
    cashProportion[1]  findWorstP[2,1]  -1.8082746648664293e-02
    cashProportion[2]  allocateAllCash  1
    cashProportion[2]  findWorstP[1,2]  -1.5965259595121017e-02
    cashProportion[2]  findWorstP[2,1]  1.8082746648664293e-02
    MARKER    'MARKER'                 'INTORG'
    x[1,1]    allocateEach[1]  1
    x[1,1]    findWorstP[1,2]  2.6374608851139920e-02
    x[1,1]    findWorstP[2,1]  -5.2030089690423380e-02
    x[1,2]    allocateEach[2]  1
    x[1,2]    findWorstP[1,2]  2.0541967345722376e-02
    x[1,2]    findWorstP[2,1]  -0.0962243224997589
    x[1,3]    allocateEach[3]  1
    x[1,3]    findWorstP[1,2]  7.6580028524597152e-02
    x[1,3]    findWorstP[2,1]  -0.0628917928440544
    x[1,4]    allocateEach[4]  1
    x[1,4]    findWorstP[1,2]  1.0962811588649764e-02
    x[1,4]    findWorstP[2,1]  -4.9667277461664577e-02
    x[1,5]    allocateEach[5]  1
    x[1,5]    findWorstP[1,2]  3.9487408731932648e-02
    x[1,5]    findWorstP[2,1]  -1.0381907609219790e-01
    x[1,6]    allocateEach[6]  1
    x[1,6]    findWorstP[1,2]  1.0617961981395152e-01
    x[1,6]    findWorstP[2,1]  -4.1493875976468322e-02
    x[1,7]    allocateEach[7]  1
    x[1,7]    findWorstP[1,2]  8.5829235583370592e-02
    x[1,7]    findWorstP[2,1]  -4.5966341980904622e-02
    x[1,8]    allocateEach[8]  1
    x[1,8]    findWorstP[1,2]  8.7276752453328236e-04
    x[1,8]    findWorstP[2,1]  -7.3126627447198389e-02
    x[1,9]    allocateEach[9]  1
    x[1,9]    findWorstP[1,2]  5.4601187815313873e-03
    x[1,9]    findWorstP[2,1]  -7.7104831709904523e-02
    x[1,10]   allocateEach[10]  1
    x[1,10]   findWorstP[1,2]  2.4171403027013219e-02
    x[1,10]   findWorstP[2,1]  -0.0531029993249108
    x[1,11]   allocateEach[11]  1
    x[1,11]   findWorstP[1,2]  8.6946803755029056e-02
    x[1,11]   findWorstP[2,1]  -1.1265551162117853e-01
    x[1,12]   allocateEach[12]  1
    x[1,12]   findWorstP[1,2]  7.5515677884922416e-02
    x[1,12]   findWorstP[2,1]  -2.3748673931912434e-02
    x[1,13]   allocateEach[13]  1
    x[1,13]   findWorstP[1,2]  9.9623219873555144e-02
    x[1,13]   findWorstP[2,1]  -5.1113897193557724e-02
    x[1,14]   allocateEach[14]  1
    x[1,14]   findWorstP[1,2]  1.0050663090448518e-01
    x[1,14]   findWorstP[2,1]  -6.6303404378435737e-02
    x[1,15]   allocateEach[15]  1
    x[1,15]   findWorstP[1,2]  9.8495008195499931e-02
    x[1,15]   findWorstP[2,1]  -2.4893914552994504e-02
    x[1,16]   allocateEach[16]  1
    x[1,16]   findWorstP[1,2]  8.3498307682482911e-02
    x[1,16]   findWorstP[2,1]  -2.8631015527051790e-02
    x[1,17]   allocateEach[17]  1
    x[1,17]   findWorstP[1,2]  4.2989122336462522e-02
    x[1,17]   findWorstP[2,1]  -1.9143601118719260e-02
    x[2,1]    allocateEach[1]  1
    x[2,1]    findWorstP[1,2]  -2.6374608851139920e-02
    x[2,1]    findWorstP[2,1]  5.2030089690423380e-02
    x[2,2]    allocateEach[2]  1
    x[2,2]    findWorstP[1,2]  -2.0541967345722376e-02
    x[2,2]    findWorstP[2,1]  0.0962243224997589
    x[2,3]    allocateEach[3]  1
    x[2,3]    findWorstP[1,2]  -7.6580028524597152e-02
    x[2,3]    findWorstP[2,1]  0.0628917928440544
    x[2,4]    allocateEach[4]  1
    x[2,4]    findWorstP[1,2]  -1.0962811588649764e-02
    x[2,4]    findWorstP[2,1]  4.9667277461664577e-02
    x[2,5]    allocateEach[5]  1
    x[2,5]    findWorstP[1,2]  -3.9487408731932648e-02
    x[2,5]    findWorstP[2,1]  1.0381907609219790e-01
    x[2,6]    allocateEach[6]  1
    x[2,6]    findWorstP[1,2]  -1.0617961981395152e-01
    x[2,6]    findWorstP[2,1]  4.1493875976468322e-02
    x[2,7]    allocateEach[7]  1
    x[2,7]    findWorstP[1,2]  -8.5829235583370592e-02
    x[2,7]    findWorstP[2,1]  4.5966341980904622e-02
    x[2,8]    allocateEach[8]  1
    x[2,8]    findWorstP[1,2]  -8.7276752453328236e-04
    x[2,8]    findWorstP[2,1]  7.3126627447198389e-02
    x[2,9]    allocateEach[9]  1
    x[2,9]    findWorstP[1,2]  -5.4601187815313873e-03
    x[2,9]    findWorstP[2,1]  7.7104831709904523e-02
    x[2,10]   allocateEach[10]  1
    x[2,10]   findWorstP[1,2]  -2.4171403027013219e-02
    x[2,10]   findWorstP[2,1]  0.0531029993249108
    x[2,11]   allocateEach[11]  1
    x[2,11]   findWorstP[1,2]  -8.6946803755029056e-02
    x[2,11]   findWorstP[2,1]  1.1265551162117853e-01
    x[2,12]   allocateEach[12]  1
    x[2,12]   findWorstP[1,2]  -7.5515677884922416e-02
    x[2,12]   findWorstP[2,1]  2.3748673931912434e-02
    x[2,13]   allocateEach[13]  1
    x[2,13]   findWorstP[1,2]  -9.9623219873555144e-02
    x[2,13]   findWorstP[2,1]  5.1113897193557724e-02
    x[2,14]   allocateEach[14]  1
    x[2,14]   findWorstP[1,2]  -1.0050663090448518e-01
    x[2,14]   findWorstP[2,1]  6.6303404378435737e-02
    x[2,15]   allocateEach[15]  1
    x[2,15]   findWorstP[1,2]  -9.8495008195499931e-02
    x[2,15]   findWorstP[2,1]  2.4893914552994504e-02
    x[2,16]   allocateEach[16]  1
    x[2,16]   findWorstP[1,2]  -8.3498307682482911e-02
    x[2,16]   findWorstP[2,1]  2.8631015527051790e-02
    x[2,17]   allocateEach[17]  1
    x[2,17]   findWorstP[1,2]  -4.2989122336462522e-02
    x[2,17]   findWorstP[2,1]  1.9143601118719260e-02
    MARKER    'MARKER'                 'INTEND'
RHS
    RHS1      allocateEach[1]  1
    RHS1      allocateEach[2]  1
    RHS1      allocateEach[3]  1
    RHS1      allocateEach[4]  1
    RHS1      allocateEach[5]  1
    RHS1      allocateEach[6]  1
    RHS1      allocateEach[7]  1
    RHS1      allocateEach[8]  1
    RHS1      allocateEach[9]  1
    RHS1      allocateEach[10]  1
    RHS1      allocateEach[11]  1
    RHS1      allocateEach[12]  1
    RHS1      allocateEach[13]  1
    RHS1      allocateEach[14]  1
    RHS1      allocateEach[15]  1
    RHS1      allocateEach[16]  1
    RHS1      allocateEach[17]  1
    RHS1      allocateAllCash  1
BOUNDS
 UP BND1      z         1
 MI BND1      cashProportion[1]
 UP BND1      cashProportion[1]  1
 MI BND1      cashProportion[2]
 UP BND1      cashProportion[2]  1
 BV BND1      x[1,1]  
 BV BND1      x[1,2]  
 BV BND1      x[1,3]  
 BV BND1      x[1,4]  
 BV BND1      x[1,5]  
 BV BND1      x[1,6]  
 BV BND1      x[1,7]  
 BV BND1      x[1,8]  
 BV BND1      x[1,9]  
 BV BND1      x[1,10] 
 BV BND1      x[1,11] 
 BV BND1      x[1,12] 
 BV BND1      x[1,13] 
 BV BND1      x[1,14] 
 BV BND1      x[1,15] 
 BV BND1      x[1,16] 
 BV BND1      x[1,17] 
 BV BND1      x[2,1]  
 BV BND1      x[2,2]  
 BV BND1      x[2,3]  
 BV BND1      x[2,4]  
 BV BND1      x[2,5]  
 BV BND1      x[2,6]  
 BV BND1      x[2,7]  
 BV BND1      x[2,8]  
 BV BND1      x[2,9]  
 BV BND1      x[2,10] 
 BV BND1      x[2,11] 
 BV BND1      x[2,12] 
 BV BND1      x[2,13] 
 BV BND1      x[2,14] 
 BV BND1      x[2,15] 
 BV BND1      x[2,16] 
 BV BND1      x[2,17] 
ENDATA
